Sun 20 May 09:31:55 CEST 2018
CPXPARAM_TimeLimit                               45
CPXPARAM_Threads                                 4
CPXPARAM_MIP_Strategy_CallbackReducedLP          0
Tried aggregator 3 times.
MIP Presolve eliminated 1509 rows and 1438 columns.
MIP Presolve modified 5166 coefficients.
Aggregator did 9718 substitutions.
Reduced MIP has 16084 rows, 12847 columns, and 36194 nonzeros.
Reduced MIP has 11123 binaries, 8 generals, 0 SOSs, and 1887 indicators.
Presolve time = 0.14 sec. (319.03 ticks)
Found incumbent of value 19.000000 after 0.20 sec. (369.71 ticks)
Probing time = 0.35 sec. (128.44 ticks)
Tried aggregator 3 times.
Aggregator did 7036 substitutions.
Reduced MIP has 9048 rows, 5811 columns, and 22122 nonzeros.
Reduced MIP has 4087 binaries, 1724 generals, 0 SOSs, and 1887 indicators.
Presolve time = 0.04 sec. (46.83 ticks)
Probing time = 0.10 sec. (54.34 ticks)
Tried aggregator 1 time.
Reduced MIP has 9048 rows, 5811 columns, and 22122 nonzeros.
Reduced MIP has 4087 binaries, 1724 generals, 0 SOSs, and 1887 indicators.
Presolve time = 0.02 sec. (20.47 ticks)
Probing time = 0.01 sec. (6.43 ticks)
Clique table members: 232067.
MIP emphasis: balance optimality and feasibility.
MIP search method: dynamic search.
Parallel mode: deterministic, using up to 4 threads.
Root relaxation solution time = 0.08 sec. (82.54 ticks)

        Nodes                                         Cuts/
   Node  Left     Objective  IInf  Best Integer    Best Bound    ItCnt     Gap

*     0+    0                           19.0000        0.0000           100.00%
      0     0        0.0000  2084       19.0000        0.0000     1280  100.00%
*     0+    0                            3.0000        0.0000           100.00%
      0     0        0.0000  2117        3.0000 Cliques: 2362     1691   66.67%

Repeating presolve.
Tried aggregator 3 times.
MIP Presolve eliminated 7648 rows and 3963 columns.
MIP Presolve modified 880 coefficients.
Aggregator did 4 substitutions.
Reduced MIP has 1447 rows, 1334 columns, and 3194 nonzeros.
Reduced MIP has 1242 binaries, 92 generals, 0 SOSs, and 51 indicators.
Presolve time = 0.01 sec. (17.20 ticks)
Probing fixed 844 vars, tightened 56 bounds.
Probing time = 0.01 sec. (3.70 ticks)
Cover probing fixed 0 vars, tightened 7 bounds.
Tried aggregator 3 times.
MIP Presolve eliminated 1152 rows and 1012 columns.
MIP Presolve modified 168 coefficients.
Aggregator did 81 substitutions.
Reduced MIP has 256 rows, 241 columns, and 834 nonzeros.
Reduced MIP has 233 binaries, 8 generals, 0 SOSs, and 9 indicators.
Presolve time = 0.00 sec. (2.73 ticks)
Probing time = 0.00 sec. (0.70 ticks)
Tried aggregator 3 times.
MIP Presolve modified 8 coefficients.
Aggregator did 122 substitutions.
Reduced MIP has 134 rows, 119 columns, and 602 nonzeros.
Reduced MIP has 111 binaries, 8 generals, 0 SOSs, and 9 indicators.
Presolve time = 0.00 sec. (1.11 ticks)
Probing time = 0.00 sec. (0.34 ticks)
Tried aggregator 1 time.
Reduced MIP has 134 rows, 119 columns, and 602 nonzeros.
Reduced MIP has 111 binaries, 8 generals, 0 SOSs, and 9 indicators.
Presolve time = 0.00 sec. (0.57 ticks)
Represolve time = 0.12 sec. (287.95 ticks)
Probing time = 0.00 sec. (0.33 ticks)
Clique table members: 115.
MIP emphasis: balance optimality and feasibility.
MIP search method: dynamic search.
Parallel mode: deterministic, using up to 4 threads.
Root relaxation solution time = 0.00 sec. (0.88 ticks)

        Nodes                                         Cuts/
   Node  Left     Objective  IInf  Best Integer    Best Bound    ItCnt     Gap

*     0+    0                            3.0000        1.0000            66.67%
      0     0    infeasible              3.0000                   2099    0.00%

Clique cuts applied:  7

Root node processing (before b&c):
  Real time             =   24.36 sec. (12232.02 ticks)
Parallel b&c, 4 threads:
  Real time             =    0.00 sec. (0.00 ticks)
  Sync time (average)   =    0.00 sec.
  Wait time (average)   =    0.00 sec.
                          ------------
Total (root+branch&cut) =   24.36 sec. (12232.02 ticks)
   | W
 L | 0 1 2 3 4 5 6 7 8 
----------------------
 0 | 2 1 1 1 . . 7 4 5 
 1 | 2 . . . 3 3 3 4 5 
 2 | 2 . . 6 6 6 . 4 5 
 3 | . . . . . . . . . 
 4 | . . . . . . . . . 
 5 | . . . . . . . . . 
 6 | . . . . . . . . . 
 7 | . . . . . . . . . 
 8 | . . . . . . . . . 
 9 | . . . . . . . . . 
10 | . . . . . . . . . 
11 | . . . . . . . . . 
12 | . . . . . . . . . 
13 | . . . . . . . . . 
14 | . . . . . . . . . 
15 | . . . . . . . . . 
16 | . . . . . . . . . 
17 | . . . . . . . . . 
18 | . . . . . . . . . 

Boxes' corners:      (w,l)
    Box 1 is at 
        top left     (1,0)
        bottom right (3,0)

    Box 2 is at 
        top left     (0,0)
        bottom right (0,2)

    Box 3 is at 
        top left     (4,1)
        bottom right (6,1)

    Box 4 is at 
        top left     (7,0)
        bottom right (7,2)

    Box 5 is at 
        top left     (8,0)
        bottom right (8,2)

    Box 6 is at 
        top left     (3,2)
        bottom right (5,2)

    Box 7 is at 
        top left     (6,0)
        bottom right (6,0)

    Roll length used: 3
In 95.21 seconds
